results/res_prop_muc/res_Cimatti_mathsat_cores/QF_LRA/sc-13.base.cvc.smt.smt2.out
### boolMucExtractionTime 2460850
